
******************************************************************************
This program contains Ipopt, a library for large-scale nonlinear optimization.
 Ipopt is released as open source code under the Eclipse Public License (EPL).
         For more information visit http://projects.coin-or.org/Ipopt
******************************************************************************

This is Ipopt version 3.12.6, running with linear solver ma57.

Number of nonzeros in equality constraint Jacobian...:    10884
Number of nonzeros in inequality constraint Jacobian.:        0
Number of nonzeros in Lagrangian Hessian.............:     5693

Reallocating memory for MA57: lfact (1312569)
Reallocating memory for MA57: lfact (1521225)
Total number of variables............................:     1103
                     variables with only lower bounds:     1013
                variables with lower and upper bounds:       90
                     variables with only upper bounds:        0
Total number of equality constraints.................:     1032
Total number of inequality constraints...............:        0
        inequality constraints with only lower bounds:        0
   inequality constraints with lower and upper bounds:        0
        inequality constraints with only upper bounds:        0

iter    objective    inf_pr   inf_du lg(mu)  ||d||  lg(rg) alpha_du alpha_pr  ls
   0  9.9999900e-03 9.10e-01 8.63e-03  -1.0 0.00e+00    -  0.00e+00 0.00e+00   0
   1  9.8949634e-03 2.04e-02 9.95e+00  -1.7 1.02e-01    -  1.07e-01 1.00e+00h  1
   2  6.5041044e-03 1.30e-02 6.10e+00  -1.7 3.44e-01    -  2.19e-01 3.68e-01h  1
   3  3.8674559e-04 1.77e-04 7.35e+00  -1.7 8.89e-02   2.0 1.00e+00 1.00e+00h  1
   4  4.0136898e-04 4.88e-04 1.03e+00  -1.7 2.50e-02   1.5 1.00e+00 1.00e+00f  1
   5  4.0513063e-04 8.22e-05 1.13e+00  -1.7 1.28e-02   1.9 1.00e+00 1.00e+00h  1
   6  4.2042179e-04 1.97e-03 1.86e+00  -1.7 6.33e-02   1.5 1.00e+00 1.00e+00f  1
   7  4.3447938e-04 3.79e-04 1.70e+00  -1.7 2.18e-02   1.9 1.00e+00 1.00e+00f  1
   8  4.7525198e-04 2.22e-02 4.65e+00  -1.7 2.07e-01   1.4 5.67e-01 7.18e-01f  1
   9  5.2915472e-04 5.40e-04 2.33e+00  -1.7 3.06e-02   1.8 1.00e+00 1.00e+00f  1
iter    objective    inf_pr   inf_du lg(mu)  ||d||  lg(rg) alpha_du alpha_pr  ls
  10  5.6821953e-04 8.84e-04 3.72e+00  -1.7 6.05e-02   1.4 1.00e+00 5.61e-01f  1
  11  5.9956169e-04 2.77e-04 1.16e+00  -1.7 1.90e-02   1.8 1.00e+00 1.00e+00f  1
  12  6.4952437e-04 1.51e-03 7.43e+00  -1.7 8.32e-02   1.3 1.00e+00 8.91e-01f  1
  13  6.7288164e-04 9.31e-05 1.87e+00  -1.7 3.38e-02   1.7 1.00e+00 1.00e+00f  1
  14  7.0091912e-04 5.25e-04 3.51e+01  -1.7 1.56e-01   1.3 1.00e+00 4.40e-01f  1
  15  7.4214380e-04 4.56e-04 1.51e+01  -1.7 2.06e-01   0.8 5.27e-01 3.82e-01f  1
  16  7.5274844e-04 4.55e-04 4.46e+01  -1.7 2.45e+01   0.3 8.19e-03 2.00e-03f  2
  17  8.3188270e-04 2.38e-04 9.13e-01  -1.7 8.60e-02   0.7 1.00e+00 1.00e+00f  1
  18  8.9348457e-04 1.84e-04 6.26e+00  -1.7 2.34e-01    -  5.48e-01 4.79e-01h  1
  19  9.2432531e-04 4.60e-05 3.95e-01  -1.7 6.30e-02    -  1.00e+00 1.00e+00f  1
iter    objective    inf_pr   inf_du lg(mu)  ||d||  lg(rg) alpha_du alpha_pr  ls
  20  9.2538858e-04 3.40e-06 1.74e-02  -1.7 1.60e-02    -  1.00e+00 1.00e+00h  1
  21  9.2548252e-04 2.15e-09 9.69e-03  -3.8 2.53e-04    -  1.00e+00 1.00e+00h  1
  22  8.9854844e-04 5.03e-07 9.94e-04  -3.8 1.83e-02    -  1.00e+00 1.00e+00H  1
  23  8.7425716e-04 9.85e-06 9.04e-02  -5.7 1.76e-02    -  9.16e-01 1.00e+00h  1
  24  7.8515856e-04 1.07e-04 1.73e-02  -5.7 5.57e-02    -  7.92e-01 1.00e+00h  1
  25  6.5468107e-04 6.25e-04 9.56e-03  -5.7 1.81e-01    -  4.82e-01 1.00e+00h  1
  26  6.1310539e-04 4.42e-04 4.78e-03  -5.7 7.53e-02    -  5.70e-01 1.00e+00h  1
  27  5.7788361e-04 1.82e-04 5.98e-04  -5.7 5.20e-02    -  1.00e+00 1.00e+00h  1
  28  5.9454400e-04 5.94e-04 4.00e-04  -5.7 3.44e-01    -  1.00e+00 1.00e+00H  1
  29  5.7259259e-04 4.07e-05 3.62e-04  -5.7 5.34e-02    -  9.26e-01 1.00e+00h  1
iter    objective    inf_pr   inf_du lg(mu)  ||d||  lg(rg) alpha_du alpha_pr  ls
  30  5.6486962e-04 5.65e-05 9.06e-05  -5.7 8.18e-02    -  1.00e+00 1.00e+00h  1
  31  5.6711429e-04 8.98e-06 1.56e-05  -5.7 3.14e-02    -  1.00e+00 1.00e+00h  1
  32  4.6280312e-04 3.25e-03 8.07e-03  -8.6 1.16e-01    -  2.76e-01 1.00e+00h  1
  33  4.3597383e-04 2.43e-03 3.43e-03  -8.6 8.75e-02    -  2.72e-01 1.00e+00h  1
  34  4.1534843e-04 2.22e-03 1.66e-03  -8.6 4.94e-02    -  4.67e-01 1.00e+00h  1
  35  3.8031004e-04 5.64e-03 1.10e-03  -8.6 7.96e-02    -  3.42e-01 1.00e+00h  1
  36  3.7444666e-04 6.92e-03 5.42e-04  -8.6 8.32e-02    -  3.51e-01 1.00e+00h  1
  37  3.8274821e-04 2.45e-04 2.42e-04  -8.6 2.08e-02    -  5.91e-01 1.00e+00h  1
  38  3.8273188e-04 9.95e-05 2.82e-05  -8.6 1.21e-02    -  8.95e-01 1.00e+00h  1
  39  3.8285143e-04 8.42e-06 1.40e-06  -8.6 2.66e-03    -  1.00e+00 1.00e+00h  1
iter    objective    inf_pr   inf_du lg(mu)  ||d||  lg(rg) alpha_du alpha_pr  ls
  40  3.8286417e-04 5.67e-09 2.75e-09  -8.6 8.39e-05    -  1.00e+00 1.00e+00h  1

Number of Iterations....: 40

                                   (scaled)                 (unscaled)
Objective...............:   3.8286416904018296e-04    3.8286416904018296e-04
Dual infeasibility......:   2.7499801987753675e-09    2.7499801987753675e-09
Constraint violation....:   5.6657416536154415e-09    5.6657416536154415e-09
Complementarity.........:   2.5062886594141401e-09    2.5062886594141401e-09
Overall NLP error.......:   5.6657416536154415e-09    5.6657416536154415e-09


Number of objective function evaluations             = 45
Number of objective gradient evaluations             = 41
Number of equality constraint evaluations            = 45
Number of inequality constraint evaluations          = 0
Number of equality constraint Jacobian evaluations   = 41
Number of inequality constraint Jacobian evaluations = 0
Number of Lagrangian Hessian evaluations             = 40
Total CPU secs in IPOPT (w/o function evaluations)   =      4.703
Total CPU secs in NLP function evaluations           =      0.047

EXIT: Optimal Solution Found.

************************ CUTEst statistics ************************


 Package used            :  IPOPT
 Problem                 :  MINC44    
 # variables             =            1113
 # constraints           =            1032
 # objective functions   =        0.8700000E+02
 # objective gradients   =        0.4200000E+02
 # objective Hessians    =        0.4100000E+02
 # Hessian-vector prdct  =        0.0000000E+00
 # constraints functions =        0.8800000E+02
 # constraints gradients =        0.4300000E+02
 # constraints Hessians  =        0.4100000E+02
 Exit code               =               0
 Final f                 =   0.3828642E-03
 Set up time             =            0.04 seconds
 Solve time              =           12.43 seconds


******************************************************************

System Time =       3.1089999676 s.
